Problem:    IOE3F1
Rows:       23
Columns:    120 (120 integer, 120 binary)
Non-zeros:  360
Status:     INTEGER OPTIMAL
Objective:  Tempo_Total_acesso = 4900 (MINimum)

   No.   Row name        Activity     Lower bound   Upper bound
------ ------------    ------------- ------------- -------------
     1 Tempo_Total_acesso
                                4900                             
     2 arrumaPalete[1]
                                   1             1             = 
     3 arrumaPalete[2]
                                   1             1             = 
     4 arrumaPalete[3]
                                   1             1             = 
     5 arrumaPalete[4]
                                   1             1             = 
     6 arrumaPalete[5]
                                   1             1             = 
     7 arrumaPalete[6]
                                   1             1             = 
     8 arrumaPalete[7]
                                   1             1             = 
     9 arrumaPalete[8]
                                   1             1             = 
    10 arrumaPalete[9]
                                   1             1             = 
    11 arrumaPalete[10]
                                   1             1             = 
    12 ocupar_nivelPalete[1]
                                   1                           1 
    13 ocupar_nivelPalete[2]
                                   1                           1 
    14 ocupar_nivelPalete[3]
                                   1                           1 
    15 ocupar_nivelPalete[4]
                                   1                           1 
    16 ocupar_nivelPalete[5]
                                   1                           1 
    17 ocupar_nivelPalete[6]
                                   1                           1 
    18 ocupar_nivelPalete[7]
                                   1                           1 
    19 ocupar_nivelPalete[8]
                                   1                           1 
    20 ocupar_nivelPalete[9]
                                   1                           1 
    21 ocupar_nivelPalete[10]
                                   0                           1 
    22 ocupar_nivelPalete[11]
                                   0                           1 
    23 ocupar_nivelPalete[12]
                                   1                           1 

   No. Column name       Activity     Lower bound   Upper bound
------ ------------    ------------- ------------- -------------
     1 X[1,1]       *              1             0             1 
     2 X[1,2]       *              0             0             1 
     3 X[1,3]       *              0             0             1 
     4 X[1,4]       *              0             0             1 
     5 X[1,5]       *              0             0             1 
     6 X[1,6]       *              0             0             1 
     7 X[1,7]       *              0             0             1 
     8 X[1,8]       *              0             0             1 
     9 X[1,9]       *              0             0             1 
    10 X[1,10]      *              0             0             1 
    11 X[1,11]      *              0             0             1 
    12 X[1,12]      *              0             0             1 
    13 X[2,1]       *              0             0             1 
    14 X[2,2]       *              1             0             1 
    15 X[2,3]       *              0             0             1 
    16 X[2,4]       *              0             0             1 
    17 X[2,5]       *              0             0             1 
    18 X[2,6]       *              0             0             1 
    19 X[2,7]       *              0             0             1 
    20 X[2,8]       *              0             0             1 
    21 X[2,9]       *              0             0             1 
    22 X[2,10]      *              0             0             1 
    23 X[2,11]      *              0             0             1 
    24 X[2,12]      *              0             0             1 
    25 X[3,1]       *              0             0             1 
    26 X[3,2]       *              0             0             1 
    27 X[3,3]       *              1             0             1 
    28 X[3,4]       *              0             0             1 
    29 X[3,5]       *              0             0             1 
    30 X[3,6]       *              0             0             1 
    31 X[3,7]       *              0             0             1 
    32 X[3,8]       *              0             0             1 
    33 X[3,9]       *              0             0             1 
    34 X[3,10]      *              0             0             1 
    35 X[3,11]      *              0             0             1 
    36 X[3,12]      *              0             0             1 
    37 X[4,1]       *              0             0             1 
    38 X[4,2]       *              0             0             1 
    39 X[4,3]       *              0             0             1 
    40 X[4,4]       *              1             0             1 
    41 X[4,5]       *              0             0             1 
    42 X[4,6]       *              0             0             1 
    43 X[4,7]       *              0             0             1 
    44 X[4,8]       *              0             0             1 
    45 X[4,9]       *              0             0             1 
    46 X[4,10]      *              0             0             1 
    47 X[4,11]      *              0             0             1 
    48 X[4,12]      *              0             0             1 
    49 X[5,1]       *              0             0             1 
    50 X[5,2]       *              0             0             1 
    51 X[5,3]       *              0             0             1 
    52 X[5,4]       *              0             0             1 
    53 X[5,5]       *              1             0             1 
    54 X[5,6]       *              0             0             1 
    55 X[5,7]       *              0             0             1 
    56 X[5,8]       *              0             0             1 
    57 X[5,9]       *              0             0             1 
    58 X[5,10]      *              0             0             1 
    59 X[5,11]      *              0             0             1 
    60 X[5,12]      *              0             0             1 
    61 X[6,1]       *              0             0             1 
    62 X[6,2]       *              0             0             1 
    63 X[6,3]       *              0             0             1 
    64 X[6,4]       *              0             0             1 
    65 X[6,5]       *              0             0             1 
    66 X[6,6]       *              1             0             1 
    67 X[6,7]       *              0             0             1 
    68 X[6,8]       *              0             0             1 
    69 X[6,9]       *              0             0             1 
    70 X[6,10]      *              0             0             1 
    71 X[6,11]      *              0             0             1 
    72 X[6,12]      *              0             0             1 
    73 X[7,1]       *              0             0             1 
    74 X[7,2]       *              0             0             1 
    75 X[7,3]       *              0             0             1 
    76 X[7,4]       *              0             0             1 
    77 X[7,5]       *              0             0             1 
    78 X[7,6]       *              0             0             1 
    79 X[7,7]       *              1             0             1 
    80 X[7,8]       *              0             0             1 
    81 X[7,9]       *              0             0             1 
    82 X[7,10]      *              0             0             1 
    83 X[7,11]      *              0             0             1 
    84 X[7,12]      *              0             0             1 
    85 X[8,1]       *              0             0             1 
    86 X[8,2]       *              0             0             1 
    87 X[8,3]       *              0             0             1 
    88 X[8,4]       *              0             0             1 
    89 X[8,5]       *              0             0             1 
    90 X[8,6]       *              0             0             1 
    91 X[8,7]       *              0             0             1 
    92 X[8,8]       *              1             0             1 
    93 X[8,9]       *              0             0             1 
    94 X[8,10]      *              0             0             1 
    95 X[8,11]      *              0             0             1 
    96 X[8,12]      *              0             0             1 
    97 X[9,1]       *              0             0             1 
    98 X[9,2]       *              0             0             1 
    99 X[9,3]       *              0             0             1 
   100 X[9,4]       *              0             0             1 
   101 X[9,5]       *              0             0             1 
   102 X[9,6]       *              0             0             1 
   103 X[9,7]       *              0             0             1 
   104 X[9,8]       *              0             0             1 
   105 X[9,9]       *              1             0             1 
   106 X[9,10]      *              0             0             1 
   107 X[9,11]      *              0             0             1 
   108 X[9,12]      *              0             0             1 
   109 X[10,1]      *              0             0             1 
   110 X[10,2]      *              0             0             1 
   111 X[10,3]      *              0             0             1 
   112 X[10,4]      *              0             0             1 
   113 X[10,5]      *              0             0             1 
   114 X[10,6]      *              0             0             1 
   115 X[10,7]      *              0             0             1 
   116 X[10,8]      *              0             0             1 
   117 X[10,9]      *              0             0             1 
   118 X[10,10]     *              0             0             1 
   119 X[10,11]     *              0             0             1 
   120 X[10,12]     *              1             0             1 

Integer feasibility conditions:

KKT.PE: max.abs.err = 0.00e+00 on row 0
        max.rel.err = 0.00e+00 on row 0
        High quality

KKT.PB: max.abs.err = 0.00e+00 on row 0
        max.rel.err = 0.00e+00 on row 0
        High quality

End of output
